set VV := 0 1 2 3 4 5 6 7 8 9 10 11 12 13 14 15 16 17 18 ;
set VS := 0 1 2 3 4 5 6 7 8 9 10 11 12 13 14 15 16 17 18 19 20 21 22 23 24 25 26 27 28 29 30 31 32 33 34 35 36 37 38 39 40 41 42 ;
param cv := 
0 24
1 24
2 19
3 14
4 25
5 11
6 18
7 13
8 11
9 13
10 18
11 23
12 18
13 18
14 25
15 17
16 18
17 21
18 20
;
param cs := 
0 24
1 38
2 40
3 39
4 29
5 24
6 25
7 26
8 24
9 30
10 36
11 36
12 26
13 31
14 33
15 23
16 29
17 27
18 40
19 39
20 20
21 35
22 20
23 21
24 21
25 36
26 38
27 39
28 23
29 24
30 33
31 25
32 38
33 25
34 28
35 21
36 37
37 37
38 20
39 35
40 28
41 40
42 21
;
param bv:	 0 1 2 3 4 5 6 7 8 9 10 11 12 13 14 15 16 17 18 := 
		0 0 0 0 0 0 0 0 0 0 18 0 0 0 0 0 0 0 0 0 
		1 0 0 0 0 0 0 0 0 15 0 0 0 0 0 0 0 14 15 0 
		2 0 0 0 0 13 0 24 0 0 17 0 0 0 0 0 0 0 0 0 
		3 0 0 0 0 23 0 0 14 0 0 0 0 21 0 0 0 16 0 0 
		4 0 0 0 0 0 10 0 0 0 0 12 0 0 0 0 0 0 0 0 
		5 0 0 0 0 0 0 0 0 0 0 0 20 0 24 0 0 15 0 0 
		6 0 0 0 0 0 0 0 0 0 0 0 0 0 16 0 0 21 0 0 
		7 0 0 0 0 0 0 0 0 0 20 0 0 0 0 0 0 0 0 0 
		8 0 0 0 0 0 0 0 0 0 0 0 0 0 0 0 0 0 0 0 
		9 0 0 0 0 0 0 0 0 0 0 0 0 0 0 0 0 0 0 18 
		10 0 0 0 0 0 0 0 0 0 0 0 0 0 13 0 0 0 0 0 
		11 0 0 0 0 0 0 0 0 0 0 0 0 0 0 0 0 0 20 0 
		12 0 0 0 0 0 0 0 0 0 0 0 0 0 0 23 0 0 0 0 
		13 0 0 0 0 0 0 0 0 0 0 0 0 0 0 0 0 0 0 0 
		14 0 0 0 0 0 0 0 0 0 0 0 0 0 0 0 0 0 0 0 
		15 0 0 0 0 0 0 0 0 0 0 0 0 0 0 0 0 17 0 0 
		16 0 0 0 0 0 0 0 0 0 0 0 0 0 0 0 0 0 12 0 
		17 0 0 0 0 0 0 0 0 0 0 0 0 0 0 0 0 0 0 0 
		18 0 0 0 0 0 0 0 0 0 0 0 0 0 0 0 0 0 0 0 
;
param bs:	 0 1 2 3 4 5 6 7 8 9 10 11 12 13 14 15 16 17 18 19 20 21 22 23 24 25 26 27 28 29 30 31 32 33 34 35 36 37 38 39 40 41 42 := 
		0 0 0 0 21 0 0 0 0 0 0 0 32 0 0 0 0 0 0 0 0 0 0 30 0 0 0 0 0 0 0 0 0 0 0 0 0 0 0 0 0 0 0 0 
		1 0 0 0 0 0 0 0 0 0 0 0 0 0 0 0 0 0 0 0 0 0 0 0 0 0 0 0 0 0 0 0 0 25 0 0 20 0 0 0 0 0 0 0 
		2 0 0 0 0 0 0 0 0 0 0 0 0 0 0 37 0 0 0 0 0 0 0 0 0 0 0 0 0 0 0 0 31 27 23 0 0 0 0 0 24 0 0 0 
		3 21 0 0 0 0 0 0 0 0 0 0 33 0 0 0 20 0 0 0 0 0 0 0 0 0 0 0 0 0 0 0 0 0 0 0 22 0 0 24 0 0 0 32 
		4 0 0 0 0 0 0 0 0 39 0 0 0 0 0 0 0 0 0 0 0 0 0 0 0 0 0 0 0 26 0 0 0 0 0 0 0 0 0 0 0 0 34 0 
		5 0 0 0 0 0 0 0 0 0 0 40 0 0 0 0 0 0 0 0 0 0 0 40 0 0 0 0 0 22 38 0 0 0 0 0 0 0 0 0 0 0 37 0 
		6 0 0 0 0 0 0 0 0 0 0 27 0 0 0 0 0 0 0 0 0 0 0 0 0 0 0 39 0 0 0 0 0 0 0 0 0 0 0 0 0 0 0 0 
		7 0 0 0 0 0 0 0 0 0 0 0 0 0 0 0 0 0 0 0 0 0 0 0 0 23 0 0 38 0 0 0 32 0 0 0 0 0 0 0 0 0 0 0 
		8 0 0 0 0 39 0 0 0 0 0 0 0 36 0 0 0 0 0 0 0 29 0 0 0 0 0 0 33 0 0 0 38 0 0 0 0 0 0 0 0 27 0 0 
		9 0 0 0 0 0 0 0 0 0 0 0 0 0 22 0 0 0 0 0 39 0 26 0 0 0 0 0 0 0 0 0 0 0 0 0 0 0 0 0 0 0 0 0 
		10 0 0 0 0 0 40 27 0 0 0 0 0 0 0 0 0 0 0 0 0 0 0 0 0 0 0 0 0 39 0 0 0 0 0 0 39 0 0 0 31 0 0 0 
		11 32 0 0 33 0 0 0 0 0 0 0 0 0 0 0 0 0 0 0 0 0 0 0 0 0 0 0 0 0 0 0 0 0 0 0 0 0 37 0 0 0 37 0 
		12 0 0 0 0 0 0 0 0 36 0 0 0 0 0 0 0 0 34 0 0 0 0 0 0 0 0 0 0 0 0 0 32 32 0 0 0 0 0 0 0 0 0 0 
		13 0 0 0 0 0 0 0 0 0 22 0 0 0 0 0 0 0 26 0 0 0 0 0 0 0 0 0 28 0 0 0 0 0 0 0 0 0 0 0 0 31 0 35 
		14 0 0 37 0 0 0 0 0 0 0 0 0 0 0 0 0 0 0 30 0 0 0 0 0 0 0 0 0 0 0 0 0 0 0 0 0 0 0 0 0 0 0 0 
		15 0 0 0 20 0 0 0 0 0 0 0 0 0 0 0 0 0 0 33 0 0 0 0 0 0 0 0 0 0 0 27 0 0 0 0 0 0 34 0 0 0 0 0 
		16 0 0 0 0 0 0 0 0 0 0 0 0 0 0 0 0 0 23 0 0 0 0 0 0 0 0 0 0 0 0 0 0 0 0 0 0 0 36 0 0 0 0 30 
		17 0 0 0 0 0 0 0 0 0 0 0 0 34 26 0 0 23 0 21 0 24 0 0 0 0 0 0 0 0 0 0 0 0 0 0 0 0 0 0 0 0 0 0 
		18 0 0 0 0 0 0 0 0 0 0 0 0 0 0 30 33 0 21 0 0 0 0 0 0 0 0 0 0 0 0 0 0 0 0 0 0 0 0 0 0 0 0 39 
		19 0 0 0 0 0 0 0 0 0 39 0 0 0 0 0 0 0 0 0 0 0 34 0 0 0 0 0 0 0 0 0 0 0 0 0 0 0 39 0 0 0 0 0 
		20 0 0 0 0 0 0 0 0 29 0 0 0 0 0 0 0 0 24 0 0 0 0 0 0 0 0 21 0 0 0 0 0 0 0 0 0 0 0 0 0 0 0 0 
		21 0 0 0 0 0 0 0 0 0 26 0 0 0 0 0 0 0 0 0 34 0 0 0 0 0 0 0 0 0 0 22 0 0 0 0 0 0 0 0 0 0 0 20 
		22 30 0 0 0 0 40 0 0 0 0 0 0 0 0 0 0 0 0 0 0 0 0 0 0 0 0 0 0 0 0 0 0 0 0 0 0 0 0 0 0 0 0 0 
		23 0 0 0 0 0 0 0 0 0 0 0 0 0 0 0 0 0 0 0 0 0 0 0 0 0 0 0 0 0 0 0 0 0 0 0 26 0 25 23 0 32 0 0 
		24 0 0 0 0 0 0 0 23 0 0 0 0 0 0 0 0 0 0 0 0 0 0 0 0 0 0 0 0 35 31 0 0 0 0 0 0 0 0 0 0 0 0 0 
		25 0 0 0 0 0 0 0 0 0 0 0 0 0 0 0 0 0 0 0 0 0 0 0 0 0 0 0 0 0 0 0 0 0 0 0 0 0 26 39 0 0 0 0 
		26 0 0 0 0 0 0 39 0 0 0 0 0 0 0 0 0 0 0 0 0 21 0 0 0 0 0 0 34 0 0 0 0 0 0 0 0 0 0 0 0 0 38 0 
		27 0 0 0 0 0 0 0 38 33 0 0 0 0 28 0 0 0 0 0 0 0 0 0 0 0 0 34 0 0 0 0 0 0 0 0 0 0 25 0 0 0 0 0 
		28 0 0 0 0 26 22 0 0 0 0 39 0 0 0 0 0 0 0 0 0 0 0 0 0 35 0 0 0 0 0 0 0 0 0 0 0 29 0 0 0 0 0 0 
		29 0 0 0 0 0 38 0 0 0 0 0 0 0 0 0 0 0 0 0 0 0 0 0 0 31 0 0 0 0 0 0 0 0 0 0 0 0 0 0 0 0 0 0 
		30 0 0 0 0 0 0 0 0 0 0 0 0 0 0 0 27 0 0 0 0 0 22 0 0 0 0 0 0 0 0 0 0 0 0 0 0 0 0 0 0 0 0 0 
		31 0 0 31 0 0 0 0 32 38 0 0 0 32 0 0 0 0 0 0 0 0 0 0 0 0 0 0 0 0 0 0 0 0 0 0 0 0 0 0 0 32 0 0 
		32 0 25 27 0 0 0 0 0 0 0 0 0 32 0 0 0 0 0 0 0 0 0 0 0 0 0 0 0 0 0 0 0 0 0 0 0 0 0 0 32 0 0 0 
		33 0 0 23 0 0 0 0 0 0 0 0 0 0 0 0 0 0 0 0 0 0 0 0 0 0 0 0 0 0 0 0 0 0 0 0 0 0 0 0 24 0 0 0 
		34 0 0 0 0 0 0 0 0 0 0 0 0 0 0 0 0 0 0 0 0 0 0 0 0 0 0 0 0 0 0 0 0 0 0 0 0 0 0 0 23 25 0 39 
		35 0 20 0 22 0 0 0 0 0 0 39 0 0 0 0 0 0 0 0 0 0 0 0 26 0 0 0 0 0 0 0 0 0 0 0 0 0 0 0 0 0 0 0 
		36 0 0 0 0 0 0 0 0 0 0 0 0 0 0 0 0 0 0 0 0 0 0 0 0 0 0 0 0 29 0 0 0 0 0 0 0 0 0 0 20 0 0 0 
		37 0 0 0 0 0 0 0 0 0 0 0 37 0 0 0 34 36 0 0 39 0 0 0 25 0 26 0 25 0 0 0 0 0 0 0 0 0 0 0 0 0 0 39 
		38 0 0 0 24 0 0 0 0 0 0 0 0 0 0 0 0 0 0 0 0 0 0 0 23 0 39 0 0 0 0 0 0 0 0 0 0 0 0 0 0 0 20 0 
		39 0 0 24 0 0 0 0 0 0 0 31 0 0 0 0 0 0 0 0 0 0 0 0 0 0 0 0 0 0 0 0 0 32 24 23 0 20 0 0 0 0 0 0 
		40 0 0 0 0 0 0 0 0 27 0 0 0 0 31 0 0 0 0 0 0 0 0 0 32 0 0 0 0 0 0 0 32 0 0 25 0 0 0 0 0 0 0 0 
		41 0 0 0 0 34 37 0 0 0 0 0 37 0 0 0 0 0 0 0 0 0 0 0 0 0 0 38 0 0 0 0 0 0 0 0 0 0 0 20 0 0 0 0 
		42 0 0 0 32 0 0 0 0 0 0 0 0 0 35 0 0 30 0 39 0 0 20 0 0 0 0 0 0 0 0 0 0 0 0 39 0 0 39 0 0 0 0 0 
;
